Code/Rooms/2nwall10-1.dzn
n = 10;

w =
[|0,0,1,1,1,0,0,1,1,0,
 |0,0,1,0,0,0,1,1,1,0,
 |0,1,1,0,0,1,0,0,1,1,
 |0,1,1,1,1,1,1,1,0,1,
 |0,1,0,0,0,0,0,1,0,0,
 |1,1,1,1,1,1,0,1,0,0,
 |1,0,1,0,0,0,0,1,0,0,
 |1,0,1,0,1,1,1,1,0,0,
 |0,0,0,0,1,0,0,1,0,1,
 |1,0,1,1,1,1,0,0,0,0,
 |];

